NAME: random_points
TYPE: TSP
DIMENSION: 16
EDGE_WEIGHT_TYPE: EUC_2D
NODE_COORD_SECTION
1 1 92
2 1 52
3 35 91
4 54 71
5 4 37
6 2 10
7 69 60
8 47 75
9 28 10
10 34 46
11 7 21
12 50 31
13 51 77
14 77 52
15 58 92
16 92 93
EOF
